n_potions = 66;
alchemy = [3, 2, 3, 4, 3, 4, 5, 4, 3, 3, 2, 2, 5, 2, 1, 1, 1, 3, 1, 4, 3, 4, 3, 2, 4, 4, 4, 1, 3, 3, 3, 5, 2, 4, 5, 4, 4, 4, 5, 4, 2, 4, 4, 1, 5, 2, 2, 3, 2, 4, 2, 3, 3, 4, 4, 1, 5, 2, 2, 2, 3, 4, 4, 3, 4, 2];
n_days = 12;
min_potions = 5;
max_potions = 7;
min_alchemists = 5;
max_alchemists = 35;
prereqs = [|7,1
|8,2
|10,5
|11,5
|11,6
|12,7
|13,11
|14,3
|17,10
|18,10
|18,11
|19,8
|19,11
|21,10
|23,17
|24,13
|24,19
|26,13
|26,23
|32,9
|33,27
|34,17
|35,17
|35,18
|37,20
|37,35
|38,33
|39,35
|41,9
|41,17
|41,18
|45,38
|46,37
|47,42
|48,35
|49,30
|49,32
|50,43
|51,33
|53,47
|55,43
|55,38
|56,51
|57,34
|58,28
|59,55
|61,48
|62,31
|63,48
|65,59
|];
